<number of tasks>
30

<cycle time>
75

<task times>
1 8
2 7
3 19
4 10
5 2
6 6
7 14
8 10
9 1
10 4
11 14
12 15
13 5
14 12
15 9
16 10
17 2
18 10
19 18
20 16
21 21
22 14
23 16
24 7
25 17
26 9
27 25
28 7
29 14
30 2

<precedence relations>
1,4
1,5
2,11
2,12
3,16
3,17
4,7
5,6
6,7
7,8
8,9
9,26
10,24
12,13
13,14
14,15
14,20
15,22
16,20
17,18
18,19
20,21
20,24
21,22
22,23
23,27
24,25
25,26
26,27
27,28
27,29
29,30

<setup times forward>
1,15:1
1,16:1
2,8:1
2,16:1
3,8:1
3,15:1
3,16:1
4,15:1
4,16:1
5,15:1
5,16:1
6,15:1
6,16:1
7,8:1
7,15:1
7,16:1
8,2:1
8,3:1
8,9:1
8,10:1
8,11:1
8,12:1
8,13:1
8,14:1
8,17:1
8,18:1
8,19:1
8,20:1
8,21:1
8,22:1
8,23:1
8,24:1
8,25:1
9,15:1
9,16:1
10,8:1
10,15:1
10,16:1
11,8:1
11,15:1
11,16:1
12,8:1
12,16:1
13,8:1
13,16:1
14,8:1
14,15:1
14,16:1
15,1:1
15,3:1
15,4:1
15,5:1
15,6:1
15,7:1
15,9:1
15,10:1
15,11:1
15,17:1
15,18:1
15,19:1
15,20:1
15,21:1
15,22:1
15,24:1
15,25:1
15,26:1
16,1:1
16,2:1
16,4:1
16,5:1
16,6:1
16,7:1
16,9:1
16,10:1
16,11:1
16,12:1
16,13:1
16,14:1
16,17:1
16,18:1
16,19:1
16,20:1
17,8:1
17,15:1
17,16:1
18,8:1
18,15:1
18,16:1
19,8:1
19,15:1
19,16:1
20,8:1
20,15:1
21,8:1
21,15:1
22,8:1
23,8:1
24,8:1
24,15:1
25,8:1
25,15:1
26,15:1

<setup times backward>
1,15:1
1,16:1
2,8:1
2,16:1
3,8:1
3,15:1
4,15:1
4,16:1
5,15:1
5,16:1
6,15:1
6,16:1
7,15:1
7,16:1
9,8:1
9,15:1
9,16:1
10,8:1
10,15:1
10,16:1
11,8:1
11,15:1
11,16:1
12,8:1
12,16:1
13,8:1
13,16:1
14,8:1
14,16:1
17,8:1
17,15:1
17,16:1
18,8:1
18,15:1
18,16:1
19,8:1
19,15:1
19,16:1
20,8:1
20,15:1
20,16:1
21,8:1
21,15:1
21,16:1
22,8:1
22,15:1
22,16:1
23,8:1
23,15:1
23,16:1
24,8:1
24,15:1
24,16:1
25,8:1
25,15:1
25,16:1
26,8:1
26,15:1
26,16:1
27,8:1
27,15:1
27,16:1
28,8:1
28,15:1
28,16:1
29,8:1
29,15:1
29,16:1
30,8:1
30,15:1
30,16:1

<end>

<optimal SALBP-1 value>
5


<rand seed>
467321153

